outputs/case_108.model.txt
capital_adequacy_ratio = 100
capital_insufficient_measures_done = False
net_worth_ratio = 5/2
net_worth = 100
capital_severely_insufficient_measures_done = False
capital_significantly_insufficient_measures_done = True
report_content_truthful = True
internal_handling_established = True
violate_148_3_2 = False
penalty_171_4 = False
explanation_document_compliant = True
penalty_171_2 = False
explanation_document_provided = True
capital_insufficient_measures_executed = False
violate_148_1_1_or_2 = False
internal_control_executed = True
penalty_171_5 = False
violate_148_1_1_or_2_flag = False
internal_handling_executed = True
internal_control_established = True
capital_significantly_insufficient_measures_executed = True
penalty_171_3 = False
report_publicly_explained = True
report_submitted_on_time = True
capital_severely_insufficient_measures_executed = False
capital_level = 3
penalty = False
violate_148_2_2 = False
violate_148_2_1 = False
penalty_171_1 = False
violate_148_3_1 = False
explanation_document_truthful = True